
Log started (V11.0.0) Thu Apr 24 01:02:21 2008

Tried aggregator 1 time.
Reduced MIP has 540 rows, 20001 columns, and 40040 nonzeros.
Presolve time =    0.14 sec.
Clique table members: 500.
MIP emphasis: balance optimality and feasibility.
MIP search method: dynamic search.
Parallel mode: none, using 1 thread.
Root relaxation solution time =    1.41 sec.

        Nodes                                         Cuts/
   Node  Left     Objective  IInf  Best Integer     Best Node    ItCnt     Gap

*     0+    0                        74967.0000     1275.8871      945   98.30%
*     0+    0                         1425.0000     1275.8871      945   10.46%
      0     0     1276.5460    79     1425.0000      Fract: 6     1014   10.42%
*     0+    0                         1335.0000     1276.5460     1014    4.38%
      0     0     1276.8169    82     1335.0000     1276.8169     1052    4.36%
      0     0     1276.9343    84     1335.0000     Covers: 1     1076    4.35%
      0     0     1277.2727    87     1335.0000     Covers: 3     1112    4.32%
*     0+    0                         1330.0000     1277.2727     1112    3.96%
      0     0     1277.3012    93     1330.0000     Covers: 4     1130    3.96%
*     0+    0                         1329.0000     1277.3012     1130    3.89%
      0     0     1277.3054    94     1329.0000     Covers: 4     1144    3.89%
*     0+    0                         1328.0000     1277.3054     1144    3.82%
*     0+    0                         1326.0000     1277.3054     1144    3.67%
      0     2     1277.3054    94     1326.0000     1277.3054     1144    3.67%
    100   101     1278.0000    84     1326.0000     1277.3140     3484    3.67%
*   200+  192                         1325.0000     1277.3140     7540    3.60%
    200   194     1279.0000    76     1325.0000     1277.3140     7540    3.60%
    300   281     1280.0000    79     1325.0000     1277.3140    11745    3.60%
    400   364     1282.0000    77     1325.0000     1277.3140    16481    3.60%
    500   438     1283.0164    78     1325.0000     1277.3140    23643    3.60%
*   506+  441                         1324.0000     1277.3140    23815    3.53%
    600   465     1286.0000    94     1324.0000     1284.8019    34584    2.96%
    700   492     1286.0000   116     1324.0000     1284.8019    45049    2.96%
    800   522     1286.0000   125     1324.0000     1284.8019    57832    2.96%
    900   548     1287.0000    87     1324.0000     1284.8019    66601    2.96%
   1000   572     1287.0000    99     1324.0000     1284.8019    83980    2.96%
Elapsed time = 337.36 sec. (tree size =  7.24 MB, solutions = 9)
   1100   588     1289.0000    79     1324.0000     1284.8019    96620    2.96%
   1200   645     1291.0000    65     1324.0000     1284.8019   102606    2.96%
   1300   725     1292.0000    73     1324.0000     1284.8019   108044    2.96%
   1400   793     1293.0000    72     1324.0000     1284.8019   114503    2.96%
   1500   864     1293.0000    74     1324.0000     1284.8019   119654    2.96%
   1600   932     1293.0000    68     1324.0000     1284.8019   125835    2.96%
   1700  1003     1293.0000    76     1324.0000     1284.8019   131892    2.96%
   1800  1085     1294.0000    74     1324.0000     1284.8019   136986    2.96%
   1900  1164     1295.0000    64     1324.0000     1284.8019   140417    2.96%
   2000  1244     1295.0000    69     1324.0000     1284.8019   143941    2.96%
Elapsed time = 472.45 sec. (tree size = 17.22 MB, solutions = 9)
   2100  1322     1297.0000    67     1324.0000     1284.8019   147472    2.96%
   2200  1378     1298.4603    70     1324.0000     1284.8019   151428    2.96%
   2300  1450     1314.0000    49     1324.0000     1284.8019   153650    2.96%
   2400  1529     1298.0000    64     1324.0000     1284.8019   156264    2.96%
   2500  1602     1300.0000    58     1324.0000     1284.8019   159326    2.96%
   2600  1683     1301.0000    70     1324.0000     1284.8019   161824    2.96%
   2700  1758     1302.2058    73     1324.0000     1284.8019   164916    2.96%
   2800  1831     1305.3817    63     1324.0000     1284.8019   168522    2.96%
   2900  1894     1306.8206    65     1324.0000     1284.8019   173091    2.96%
   3000  1967     1306.0000    70     1324.0000     1284.8019   177012    2.96%
Elapsed time = 546.13 sec. (tree size = 27.83 MB, solutions = 9)
   3100  2023     1309.2036    71     1324.0000     1284.8019   182084    2.96%
   3200  2087     1309.4407    69     1324.0000     1284.8019   187673    2.96%
   3300  2159     1313.9445    64     1324.0000     1284.8019   192318    2.96%
   3400  2220     1317.5232    66     1324.0000     1284.8019   197996    2.96%
   3500  2297     1312.0000    56     1324.0000     1284.8019   201554    2.96%
   3600  2359     1312.0000    63     1324.0000     1284.8019   206457    2.96%
   3700  2431     1312.0000    64     1324.0000     1284.8019   210967    2.96%
   3800  2500     1314.0000    64     1324.0000     1284.8019   214327    2.96%
   3900  2568     1316.0000    59     1324.0000     1284.8019   217661    2.96%
   4000  2623     1317.0000    53     1324.0000     1284.8019   221597    2.96%
Elapsed time = 635.33 sec. (tree size = 37.52 MB, solutions = 9)
   4100  2681     1322.0000    54     1324.0000     1284.8019   224844    2.96%
   4200  2735     1286.0000    90     1324.0000     1284.8019   227364    2.96%
   4300  2834     1287.0000   122     1324.0000     1284.8019   231549    2.96%
   4400  2931     1287.0000    98     1324.0000     1284.8019   242681    2.96%
   4500  3026     1288.0000    74     1324.0000     1284.8019   253153    2.96%
   4600  3122     1288.0000    97     1324.0000     1284.8019   259049    2.96%
   4700  3200     1289.0000    81     1324.0000     1284.8019   263234    2.96%
   4800  3293     1292.0000    86     1324.0000     1284.8019   266937    2.96%
   4900  3385     1293.0000    70     1324.0000     1284.8019   270472    2.96%
   5000  3474     1294.0000    70     1324.0000     1284.8019   275272    2.96%
Elapsed time = 801.83 sec. (tree size = 49.28 MB, solutions = 9)
   5100  3559     1297.0849    80     1324.0000     1284.8019   279681    2.96%
   5200  3642     1303.0000    64     1324.0000     1284.8019   282147    2.96%
   5300  3731     1303.0000    74     1324.0000     1284.8019   285548    2.96%
   5400  3819     1304.0000    63     1324.0000     1284.8019   288534    2.96%
   5500  3903     1307.0000    64     1324.0000     1284.8019   292238    2.96%
   5600  3985     1309.0000    56     1324.0000     1284.8019   295533    2.96%
   5700  4065     1310.0000    68     1324.0000     1284.8019   299313    2.96%
   5800  4145     1313.0000    66     1324.0000     1284.8019   303101    2.96%
   5900  4229     1316.0000    56     1324.0000     1284.8019   307834    2.96%
   6000  4301     1319.0000    59     1324.0000     1284.8019   310943    2.96%
Elapsed time = 886.38 sec. (tree size = 61.66 MB, solutions = 9)
   6100  4368     1287.0000   126     1324.0000     1285.0000   370600    2.95%
   6200  4467     1287.0000   139     1324.0000     1285.0000   387229    2.95%
   6300  4562     1288.0000   117     1324.0000     1285.0000   402274    2.95%
   6400  4660     1288.0008   137     1324.0000     1285.0000   419280    2.95%
   6500  4756     1289.0000    81     1324.0000     1285.0000   426275    2.95%
   6600  4856     1289.0000    92     1324.0000     1285.0000   434144    2.95%
   6700  4946     1291.0000    77     1324.0000     1285.0000   447474    2.95%
   6800  5041     1291.4513    94     1324.0000     1285.0000   452220    2.95%
   6900  5130     1294.9620    80     1324.0000     1285.0000   457261    2.95%
   7000  5210     1297.0000    68     1324.0000     1285.0000   464581    2.95%
Elapsed time = 1399.47 sec. (tree size = 77.69 MB, solutions = 9)
   7100  5296     1298.0000    73     1324.0000     1285.0000   467243    2.95%
   7200  5375     1299.0000    67     1324.0000     1285.0000   471796    2.95%
   7300  5458     1301.0000    63     1324.0000     1285.0000   476160    2.95%
   7400  5546     1303.0000    65     1324.0000     1285.0000   478887    2.95%
   7500  5620     1304.0000    63     1324.0000     1285.0000   482393    2.95%
   7600  5688     1307.9416    71     1324.0000     1285.0000   485717    2.95%
   7700  5755     1313.0000    67     1324.0000     1285.0000   490040    2.95%
   7800  5832     1318.9145    62     1324.0000     1285.0000   492172    2.95%
   7900  5908     1323.0000    57     1324.0000     1285.0000   494498    2.95%
   8000  5992     1287.0000   132     1324.0000     1285.0000   567483    2.95%
Elapsed time = 1753.13 sec. (tree size = 92.37 MB, solutions = 9)
   8100  6091     1288.0000   104     1324.0000     1285.0000   577622    2.95%
   8200  6189     1287.0000   129     1324.0000     1285.0000   593140    2.95%
   8300  6288     1288.0000   109     1324.0000     1285.0000   601300    2.95%
   8400  6385     1287.0000   116     1324.0000     1285.0000   631490    2.95%
   8500  6485     1287.0000   121     1324.0000     1285.0000   643664    2.95%
   8600  6584     1286.0000   129     1324.0000     1285.0000   673587    2.95%
   8700  6683     1287.0000   106     1324.0000     1285.0000   688500    2.95%
   8800  6781     1287.0000   114     1324.0000     1285.0000   703257    2.95%
   8900  6880     1288.0000   136     1324.0000     1285.0000   712102    2.95%
   9000  6978     1287.0000   152     1324.0000     1285.0000   744852    2.95%
Elapsed time = 2317.55 sec. (tree size = 110.00 MB, solutions = 9)
   9100  7077     1288.0000    83     1324.0000     1285.0000   755083    2.95%
   9200  7176     1286.0000   134     1324.0000     1285.0000   769727    2.95%
   9300  7275     1286.0000   138     1324.0000     1285.0000   791200    2.95%
   9400  7371     1286.0000   192     1324.0000     1285.0000   819653    2.95%
   9500  7469     1287.0000    95     1324.0000     1285.0000   841780    2.95%
   9600  7568     1286.0000   183     1324.0000     1285.0000   867360    2.95%
   9700  7667     1287.0000   112     1324.0000     1285.0000   884144    2.95%
   9800  7765     1287.0000   158     1324.0000     1285.0000   917924    2.95%
   9900  7865     1287.0000   142     1324.0000     1285.0000   925145    2.95%
  10000  7963     1286.0000   206     1324.0000     1285.0000   969155    2.95%
Elapsed time = 3017.14 sec. (tree size = 128.21 MB, solutions = 9)
Nodefile size =  0.99 MB (0.55 MB after compression)
  10100  8059     1287.0000   103     1324.0000     1285.0000   978657    2.95%
  10200  8157     1287.0000   174     1324.0000     1285.0000  1001978    2.95%
  10300  8256     1288.0000    98     1324.0000     1285.0000  1016489    2.95%
  10400  8353     1286.0000   154     1324.0000     1285.0000  1044946    2.95%
  10500  8451     1286.0000   179     1324.0000     1285.0000  1069380    2.95%
  10600  8549     1287.0000   136     1324.0000     1285.0000  1098659    2.95%
  10700  8649     1287.0000   139     1324.0000     1285.0000  1105901    2.95%
  10800  8746     1286.0000   144     1324.0000     1285.0000  1128352    2.95%
  10900  8844     1286.0000   168     1324.0000     1285.0000  1154094    2.95%
  11000  8941     1286.0000   161     1324.0000     1285.0000  1184960    2.95%
Elapsed time = 3700.72 sec. (tree size = 146.82 MB, solutions = 9)
Nodefile size = 19.64 MB (9.53 MB after compression)
  11100  9041     1286.0000   187     1324.0000     1285.0000  1205606    2.95%
  11200  9138     1287.0000   171     1324.0000     1285.0000  1236930    2.95%
  11300  9237     1288.0000   102     1324.0000     1285.0000  1248990    2.95%
  11400  9336     1286.0000   134     1324.0000     1285.0000  1266306    2.95%
  11500  9432     1286.0000   178     1324.0000     1285.0000  1289230    2.95%
  11600  9527     1287.0000   121     1324.0000     1285.0000  1317969    2.95%
  11700  9626     1287.0000   141     1324.0000     1285.0000  1338281    2.95%
  11800  9725     1286.0000   185     1324.0000     1285.0000  1377587    2.95%
  11900  9824     1287.0000   104     1324.0000     1285.0000  1393283    2.95%
  12000  9923     1286.0000   188     1324.0000     1285.0000  1416783    2.95%
Elapsed time = 4474.05 sec. (tree size = 165.93 MB, solutions = 9)
Nodefile size = 38.00 MB (18.32 MB after compression)
  12100 10022     1287.0000   102     1324.0000     1285.0000  1435281    2.95%
  12200 10121     1286.0000   162     1324.0000     1285.0000  1473408    2.95%
  12300 10220     1287.0000   112     1324.0000     1285.0000  1491577    2.95%
  12400 10317     1286.0000   193     1324.0000     1285.0000  1529935    2.95%
  12500 10414     1287.0000   122     1324.0000     1285.0000  1556722    2.95%
* 12508+10359                         1323.0000     1285.0000  1557781    2.87%
  12600 10452     1286.0000   191     1323.0000     1285.0000  1593112    2.87%
* 12608+10397                         1322.0000     1285.0000  1594677    2.80%
  12700 10490     1287.0000    98     1322.0000     1285.0000  1612315    2.80%
* 12708+10496                         1321.0000     1285.0000  1613075    2.73%
  12800 10589     1286.0000   170     1321.0000     1285.0000  1647210    2.73%
  12900 10688     1287.0000   103     1321.0000     1285.0000  1665675    2.73%
* 12908+10632                         1320.0000     1285.0000  1665904    2.65%
  13000 10724     1287.0000   151     1320.0000     1285.0000  1684457    2.65%
Elapsed time = 5414.97 sec. (tree size = 182.62 MB, solutions = 13)
Nodefile size = 55.09 MB (27.20 MB after compression)
  13100 10824     1287.0000   164     1320.0000     1285.0000  1703707    2.65%
  13200 10921     1286.0000   171     1320.0000     1285.0000  1735488    2.65%
  13300 11015     1287.0000    91     1320.0000     1285.0000  1760543    2.65%
  13400 11113     1286.0000   216     1320.0000     1285.0000  1807498    2.65%
  13500 11208     1287.0000   107     1320.0000     1285.0000  1832020    2.65%
  13600 11306     1286.0000   191     1320.0000     1285.0000  1878003    2.65%
  13700 11405     1287.0000   131     1320.0000     1285.0000  1893314    2.65%
  13800 11504     1286.0000   183     1320.0000     1285.0000  1926234    2.65%
  13900 11603     1287.0000    99     1320.0000     1285.0000  1949229    2.65%
  14000 11699     1286.0000   163     1320.0000     1285.0000  1987144    2.65%
Elapsed time = 6438.72 sec. (tree size = 202.46 MB, solutions = 13)
Nodefile size = 75.08 MB (39.60 MB after compression)
  14100 11794     1287.0000   130     1320.0000     1285.0000  2015091    2.65%
  14200 11893     1286.0000   184     1320.0000     1285.0000  2047410    2.65%
  14300 11992     1287.0000   121     1320.0000     1285.0000  2063697    2.65%
  14400 12090     1286.0000   150     1320.0000     1285.0000  2112654    2.65%
  14500 12186     1286.0000   190     1320.0000     1285.0000  2145709    2.65%
  14600 12283     1286.0000   166     1320.0000     1285.0000  2174954    2.65%
  14700 12382     1287.0000   104     1320.0000     1285.0000  2187814    2.65%

Cover cuts applied:  796
Mixed integer rounding cuts applied:  1
Gomory fractional cuts applied:  17

Solution pool: 13 solutions saved.

MIP - Time limit exceeded, integer feasible:  Objective = 1.3200000000e+003
Current MIP best bound = 1.2850000000e+003 (gap = 35, 2.65%)
Solution time = 7200.19 sec.  Iterations = 2198012  Nodes = 14714 (12395)


Incumbent solution
Variable Name           Solution Value
Cmax                       1320.000000
X_1_37                        1.000000
X_2_29                        1.000000
X_3_16                        1.000000
X_4_32                        1.000000
X_5_10                        1.000000
X_6_40                        1.000000
X_7_9                         1.000000
X_8_7                         1.000000
X_9_34                        1.000000
X_10_14                       1.000000
X_11_16                       1.000000
X_12_21                       1.000000
X_13_15                       1.000000
X_14_13                       1.000000
X_15_34                       1.000000
X_16_8                        1.000000
X_17_5                        1.000000
X_18_19                       1.000000
X_19_20                       1.000000
X_20_3                        1.000000
X_21_2                        1.000000
X_22_30                       1.000000
X_23_40                       1.000000
X_24_9                        1.000000
X_25_11                       1.000000
X_26_14                       1.000000
X_27_18                       1.000000
X_28_2                        1.000000
X_29_5                        1.000000
X_30_32                       1.000000
X_31_40                       1.000000
X_32_35                       1.000000
X_33_11                       1.000000
X_34_7                        1.000000
X_35_15                       1.000000
X_36_29                       1.000000
X_37_23                       1.000000
X_38_21                       1.000000
X_39_27                       1.000000
X_40_12                       1.000000
X_41_5                        1.000000
X_42_34                       1.000000
X_43_38                       1.000000
X_44_19                       1.000000
X_45_38                       1.000000
X_46_12                       1.000000
X_47_26                       1.000000
X_48_25                       1.000000
X_49_37                       1.000000
X_50_25                       1.000000
X_51_26                       1.000000
X_52_35                       1.000000
X_53_29                       1.000000
X_54_16                       1.000000
X_55_19                       1.000000
X_56_37                       1.000000
X_57_37                       1.000000
X_58_24                       1.000000
X_59_23                       1.000000
X_60_39                       1.000000
X_61_39                       1.000000
X_62_32                       1.000000
X_63_3                        1.000000
X_64_40                       1.000000
X_65_27                       1.000000
X_66_8                        1.000000
X_67_21                       1.000000
X_68_13                       1.000000
X_69_8                        1.000000
X_70_7                        1.000000
X_71_18                       1.000000
X_72_17                       1.000000
X_73_39                       1.000000
X_74_11                       1.000000
X_75_14                       1.000000
X_76_13                       1.000000
X_77_1                        1.000000
X_78_7                        1.000000
X_79_40                       1.000000
X_80_29                       1.000000
X_81_24                       1.000000
X_82_11                       1.000000
X_83_15                       1.000000
X_84_22                       1.000000
X_85_35                       1.000000
X_86_26                       1.000000
X_87_38                       1.000000
X_88_1                        1.000000
X_89_16                       1.000000
X_90_10                       1.000000
X_91_28                       1.000000
X_92_9                        1.000000
X_93_18                       1.000000
X_94_1                        1.000000
X_95_16                       1.000000
X_96_33                       1.000000
X_97_30                       1.000000
X_98_40                       1.000000
X_99_24                       1.000000
X_100_11                      1.000000
X_101_36                      1.000000
X_102_23                      1.000000
X_103_15                      1.000000
X_104_33                      1.000000
X_105_29                      1.000000
X_106_28                      1.000000
X_107_31                      1.000000
X_108_39                      1.000000
X_109_9                       1.000000
X_110_2                       1.000000
X_111_24                      1.000000
X_112_38                      1.000000
X_113_24                      1.000000
X_114_30                      1.000000
X_115_9                       1.000000
X_116_5                       1.000000
X_117_40                      1.000000
X_118_26                      1.000000
X_119_27                      1.000000
X_120_29                      1.000000
X_121_31                      1.000000
X_122_14                      1.000000
X_123_36                      1.000000
X_124_37                      1.000000
X_125_19                      1.000000
X_126_20                      1.000000
X_127_25                      1.000000
X_128_39                      1.000000
X_129_38                      1.000000
X_130_39                      1.000000
X_131_20                      1.000000
X_132_17                      1.000000
X_133_12                      1.000000
X_134_35                      1.000000
X_135_28                      1.000000
X_136_22                      1.000000
X_137_27                      1.000000
X_138_2                       1.000000
X_139_35                      1.000000
X_140_20                      1.000000
X_141_1                       1.000000
X_142_36                      1.000000
X_143_31                      1.000000
X_144_18                      1.000000
X_145_40                      1.000000
X_146_39                      1.000000
X_147_11                      1.000000
X_148_3                       1.000000
X_149_37                      1.000000
X_150_21                      1.000000
X_151_38                      1.000000
X_152_12                      1.000000
X_153_30                      1.000000
X_154_31                      1.000000
X_155_19                      1.000000
X_156_34                      1.000000
X_157_28                      1.000000
X_158_15                      1.000000
X_159_27                      1.000000
X_160_31                      1.000000
X_161_30                      1.000000
X_162_28                      1.000000
X_163_8                       1.000000
X_164_26                      1.000000
X_165_36                      1.000000
X_166_6                       1.000000
X_167_11                      1.000000
X_168_20                      1.000000
X_169_24                      1.000000
X_170_6                       1.000000
X_171_20                      1.000000
X_172_35                      1.000000
X_173_18                      1.000000
X_174_3                       1.000000
X_175_27                      1.000000
X_176_21                      1.000000
X_177_18                      1.000000
X_178_5                       1.000000
X_179_35                      1.000000
X_180_13                      1.000000
X_181_36                      1.000000
X_182_17                      1.000000
X_183_15                      1.000000
X_184_10                      1.000000
X_185_18                      1.000000
X_186_30                      1.000000
X_187_5                       1.000000
X_188_5                       1.000000
X_189_31                      1.000000
X_190_12                      1.000000
X_191_23                      1.000000
X_192_22                      1.000000
X_193_1                       1.000000
X_194_4                       1.000000
X_195_9                       1.000000
X_196_12                      1.000000
X_197_20                      1.000000
X_198_13                      1.000000
X_199_17                      1.000000
X_200_7                       1.000000
X_201_13                      1.000000
X_202_40                      1.000000
X_203_27                      1.000000
X_204_15                      1.000000
X_205_21                      1.000000
X_206_31                      1.000000
X_207_29                      1.000000
X_208_2                       1.000000
X_209_31                      1.000000
X_210_15                      1.000000
X_211_16                      1.000000
X_212_10                      1.000000
X_213_4                       1.000000
X_214_36                      1.000000
X_215_3                       1.000000
X_216_7                       1.000000
X_217_32                      1.000000
X_218_27                      1.000000
X_219_37                      1.000000
X_220_25                      1.000000
X_221_30                      1.000000
X_222_23                      1.000000
X_223_6                       1.000000
X_224_28                      1.000000
X_225_21                      1.000000
X_226_1                       1.000000
X_227_14                      1.000000
X_228_19                      1.000000
X_229_2                       1.000000
X_230_22                      1.000000
X_231_24                      1.000000
X_232_36                      1.000000
X_233_14                      1.000000
X_234_34                      1.000000
X_235_14                      1.000000
X_236_5                       1.000000
X_237_21                      1.000000
X_238_8                       1.000000
X_239_19                      1.000000
X_240_6                       1.000000
X_241_17                      1.000000
X_242_33                      1.000000
X_243_36                      1.000000
X_244_5                       1.000000
X_245_28                      1.000000
X_246_7                       1.000000
X_247_25                      1.000000
X_248_33                      1.000000
X_249_3                       1.000000
X_250_3                       1.000000
X_251_15                      1.000000
X_252_38                      1.000000
X_253_4                       1.000000
X_254_10                      1.000000
X_255_31                      1.000000
X_256_4                       1.000000
X_257_21                      1.000000
X_258_28                      1.000000
X_259_6                       1.000000
X_260_30                      1.000000
X_261_30                      1.000000
X_262_15                      1.000000
X_263_10                      1.000000
X_264_24                      1.000000
X_265_8                       1.000000
X_266_23                      1.000000
X_267_34                      1.000000
X_268_21                      1.000000
X_269_4                       1.000000
X_270_39                      1.000000
X_271_32                      1.000000
X_272_23                      1.000000
X_273_33                      1.000000
X_274_12                      1.000000
X_275_16                      1.000000
X_276_5                       1.000000
X_277_25                      1.000000
X_278_9                       1.000000
X_279_10                      1.000000
X_280_9                       1.000000
X_281_12                      1.000000
X_282_7                       1.000000
X_283_40                      1.000000
X_284_9                       1.000000
X_285_25                      1.000000
X_286_29                      1.000000
X_287_10                      1.000000
X_288_36                      1.000000
X_289_18                      1.000000
X_290_9                       1.000000
X_291_6                       1.000000
X_292_8                       1.000000
X_293_4                       1.000000
X_294_27                      1.000000
X_295_1                       1.000000
X_296_12                      1.000000
X_297_28                      1.000000
X_298_38                      1.000000
X_299_12                      1.000000
X_300_20                      1.000000
X_301_11                      1.000000
X_302_34                      1.000000
X_303_14                      1.000000
X_304_34                      1.000000
X_305_12                      1.000000
X_306_19                      1.000000
X_307_4                       1.000000
X_308_23                      1.000000
X_309_18                      1.000000
X_310_19                      1.000000
X_311_7                       1.000000
X_312_26                      1.000000
X_313_38                      1.000000
X_314_37                      1.000000
X_315_34                      1.000000
X_316_37                      1.000000
X_317_25                      1.000000
X_318_4                       1.000000
X_319_28                      1.000000
X_320_29                      1.000000
X_321_2                       1.000000
X_322_6                       1.000000
X_323_11                      1.000000
X_324_26                      1.000000
X_325_22                      1.000000
X_326_26                      1.000000
X_327_3                       1.000000
X_328_2                       1.000000
X_329_31                      1.000000
X_330_39                      1.000000
X_331_22                      1.000000
X_332_11                      1.000000
X_333_1                       1.000000
X_334_22                      1.000000
X_335_29                      1.000000
X_336_36                      1.000000
X_337_31                      1.000000
X_338_23                      1.000000
X_339_24                      1.000000
X_340_1                       1.000000
X_341_8                       1.000000
X_342_2                       1.000000
X_343_13                      1.000000
X_344_27                      1.000000
X_345_3                       1.000000
X_346_9                       1.000000
X_347_10                      1.000000
X_348_35                      1.000000
X_349_17                      1.000000
X_350_35                      1.000000
X_351_23                      1.000000
X_352_14                      1.000000
X_353_11                      1.000000
X_354_22                      1.000000
X_355_25                      1.000000
X_356_1                       1.000000
X_357_24                      1.000000
X_358_23                      1.000000
X_359_30                      1.000000
X_360_16                      1.000000
X_361_15                      1.000000
X_362_6                       1.000000
X_363_7                       1.000000
X_364_39                      1.000000
X_365_28                      1.000000
X_366_19                      1.000000
X_367_38                      1.000000
X_368_13                      1.000000
X_369_26                      1.000000
X_370_34                      1.000000
X_371_9                       1.000000
X_372_20                      1.000000
X_373_15                      1.000000
X_374_8                       1.000000
X_375_2                       1.000000
X_376_31                      1.000000
X_377_12                      1.000000
X_378_39                      1.000000
X_379_3                       1.000000
X_380_15                      1.000000
X_381_36                      1.000000
X_382_20                      1.000000
X_383_6                       1.000000
X_384_13                      1.000000
X_385_19                      1.000000
X_386_18                      1.000000
X_387_32                      1.000000
X_388_33                      1.000000
X_389_26                      1.000000
X_390_16                      1.000000
X_391_7                       1.000000
X_392_36                      1.000000
X_393_32                      1.000000
X_394_25                      1.000000
X_395_34                      1.000000
X_396_12                      1.000000
X_397_16                      1.000000
X_398_33                      1.000000
X_399_24                      1.000000
X_400_26                      1.000000
X_401_14                      1.000000
X_402_11                      1.000000
X_403_33                      1.000000
X_404_22                      1.000000
X_405_30                      1.000000
X_406_6                       1.000000
X_407_32                      1.000000
X_408_35                      1.000000
X_409_29                      1.000000
X_410_37                      1.000000
X_411_8                       1.000000
X_412_27                      1.000000
X_413_17                      1.000000
X_414_26                      1.000000
X_415_39                      1.000000
X_416_37                      1.000000
X_417_13                      1.000000
X_418_16                      1.000000
X_419_14                      1.000000
X_420_38                      1.000000
X_421_17                      1.000000
X_422_33                      1.000000
X_423_4                       1.000000
X_424_8                       1.000000
X_425_14                      1.000000
X_426_33                      1.000000
X_427_17                      1.000000
X_428_10                      1.000000
X_429_22                      1.000000
X_430_20                      1.000000
X_431_3                       1.000000
X_432_30                      1.000000
X_433_6                       1.000000
X_434_10                      1.000000
X_435_8                       1.000000
X_436_11                      1.000000
X_437_5                       1.000000
X_438_24                      1.000000
X_439_16                      1.000000
X_440_4                       1.000000
X_441_7                       1.000000
X_442_27                      1.000000
X_443_40                      1.000000
X_444_30                      1.000000
X_445_13                      1.000000
X_446_29                      1.000000
X_447_5                       1.000000
X_448_39                      1.000000
X_449_25                      1.000000
X_450_2                       1.000000
X_451_6                       1.000000
X_452_14                      1.000000
X_453_21                      1.000000
X_454_22                      1.000000
X_455_17                      1.000000
X_456_34                      1.000000
X_457_29                      1.000000
X_458_18                      1.000000
X_459_32                      1.000000
X_460_18                      1.000000
X_461_35                      1.000000
X_462_2                       1.000000
X_463_10                      1.000000
X_464_19                      1.000000
X_465_6                       1.000000
X_466_35                      1.000000
X_467_38                      1.000000
X_468_33                      1.000000
X_469_1                       1.000000
X_470_40                      1.000000
X_471_17                      1.000000
X_472_32                      1.000000
X_473_16                      1.000000
X_474_20                      1.000000
X_475_4                       1.000000
X_476_17                      1.000000
X_477_33                      1.000000
X_478_3                       1.000000
X_479_19                      1.000000
X_480_36                      1.000000
X_481_13                      1.000000
X_482_22                      1.000000
X_483_10                      1.000000
X_484_3                       1.000000
X_485_2                       1.000000
X_486_32                      1.000000
X_487_1                       1.000000
X_488_37                      1.000000
X_489_25                      1.000000
X_490_21                      1.000000
X_491_28                      1.000000
X_492_33                      1.000000
X_493_23                      1.000000
X_494_7                       1.000000
X_495_8                       1.000000
X_496_4                       1.000000
X_497_32                      1.000000
X_498_4                       1.000000
X_499_23                      1.000000
X_500_5                       1.000000
All other variables in the range 1-20001 are 0.
